NAME : wefeVZMEiJ.428871.tour
COMMENT : Length = 428871
COMMENT : Found by LKH [Keld Helsgaun] Wed Mar  8 15:02:22 2023
TYPE : TOUR
DIMENSION : 51
TOUR_SECTION
1
22
8
26
31
28
3
36
35
20
29
2
16
50
21
34
30
9
49
10
39
33
45
15
44
42
19
40
41
13
25
14
24
43
7
23
48
6
27
51
46
12
47
18
4
17
37
5
38
11
32
-1
EOF
